998974
268955
166042
193838
648501
821490
670499
583691
411257
128247
898088
903934
859913
931009
340919
323143
581183
741072
125629
328346
454499
943048
595584
747027
216930
739979
972872
376743
328413
432584
487665
186375
249998
381910
789331
362608
252696
17368
286657
441055
785633
421051
303810
383487
249631
344460
584178
740993
745931
995178
725968
977428
999679
568761
591484
618337
193925
295016
596225
137635
892269
718087
54475
397603
576906
36154
434814
17369
583733
589306
461973
260838
377287
3040
490733
907122
175669
70076
473055
94823
909278
184592
141406
316109
376993
30706
739231
577347
249652
270948
743813
240090
262990
180688
547225
209596
540890
530906
987882
947569